wr=729;
nProviders=39;

cost_worker=[ 505 519 659 864 816 844 918 639 519 726 888 922 709 683 528 515 986 660 514 966 784 517 599 903 797 761 865 644 873 877 868 607 896 515 967 636 529 866 586 ];
available_workers=[ 16 27 22 24 22 28 25 15 21 19 18 24 26 21 21 20 27 29 15 28 15 17 24 22 29 22 16 16 24 17 20 18 30 17 21 27 20 26 30 ];
cost_contract=[ 2009 2673 2452 2117 1459 2302 1357 3006 2281 981 3317 1425 2071 1869 2018 3474 1288 2942 1198 3089 1795 2295 967 2536 3409 1889 1802 1714 3476 2741 3402 3325 1500 2700 1101 1766 2500 1037 2722 ];
country=[ 4 15 4 17 14 12 3 11 18 4 12 19 6 9 11 6 1 14 6 8 5 3 10 15 17 17 2 18 14 9 15 19 19 19 1 7 5 13 2 ];
cost_1=5;
cost_2=7;
cost_3=150;
